8248
38, 48, 24, 15, 5, 6, 4, 33, 43, 10, 9, 8, 41, 19, 45, 49, 32, 1, 22, 31, 21, 30, 2, 7, 42, 17, 3, 18, 23, 20, 50, 16, 29, 47, 26, 27, 28, 13, 14, 52, 11, 51, 12, 25, 46, 44, 34, 35, 36, 39, 40, 37
